50 8
650 759
472 727
434 858
477 660
687 298
879 731
919 658
831 580
770 329
340 519
93 361
725 667
862 764
503 729
779 884
455 854
300 454
818 193
337 605
588 589
818 530
697 71
764 60
140 441
399 927
336 460
109 268
897 677
757 577
347 825
598 912
688 258
696 417
473 725
430 629
347 542
194 511
675 478
329 638
305 398
697 272
319 380
182 334
127 231
130 498
577 275
97 342
760 765
673 155
398 516
